p tw 320 4801 3 
1 8 
1 9 
2 4 
2 7 
2 10 
3 8 
3 10 
4 7 
4 9 
5 9 
5 10 
5 15 
6 7 
6 8 
6 16 
11 18 
11 19 
11 21 
12 17 
12 20 
12 22 
13 18 
13 20 
13 23 
14 17 
14 19 
14 24 
15 19 
15 20 
16 17 
16 18 
21 28 
21 29 
22 27 
22 30 
23 28 
23 30 
24 27 
24 29 
25 29 
25 30 
25 35 
26 27 
26 28 
26 36 
31 38 
31 39 
31 41 
32 37 
32 40 
32 42 
33 38 
33 40 
33 43 
34 37 
34 39 
34 44 
35 39 
35 40 
36 37 
36 38 
41 48 
41 49 
42 47 
42 50 
43 48 
43 50 
44 47 
44 49 
45 49 
45 50 
45 55 
46 47 
46 48 
46 56 
51 58 
51 59 
51 61 
52 57 
52 60 
52 62 
53 58 
53 60 
53 63 
54 57 
54 59 
54 64 
55 59 
55 60 
56 57 
56 58 
61 68 
61 69 
62 67 
62 70 
63 68 
63 70 
64 67 
64 69 
65 69 
65 70 
65 75 
66 67 
66 68 
66 76 
71 78 
71 79 
71 81 
72 77 
72 80 
72 82 
73 78 
73 80 
73 83 
74 77 
74 79 
74 84 
75 79 
75 80 
76 77 
76 78 
81 88 
81 89 
82 87 
82 90 
83 88 
83 90 
84 87 
84 89 
85 89 
85 90 
85 95 
86 87 
86 88 
86 96 
91 98 
91 99 
91 101 
92 97 
92 100 
92 102 
93 98 
93 100 
93 103 
94 97 
94 99 
94 104 
95 99 
95 100 
96 97 
96 98 
101 108 
101 109 
102 107 
102 110 
103 108 
103 110 
104 107 
104 109 
105 109 
105 110 
105 115 
106 107 
106 108 
106 116 
111 118 
111 119 
111 121 
112 117 
112 120 
112 122 
113 118 
113 120 
113 123 
114 117 
114 119 
114 124 
115 119 
115 120 
116 117 
116 118 
121 128 
121 129 
122 127 
122 130 
123 128 
123 130 
124 127 
124 129 
125 129 
125 130 
125 135 
126 127 
126 128 
126 136 
131 138 
131 139 
131 141 
132 137 
132 140 
132 142 
133 138 
133 140 
133 143 
134 137 
134 139 
134 144 
135 139 
135 140 
136 137 
136 138 
141 148 
141 149 
142 147 
142 150 
143 148 
143 150 
144 147 
144 149 
145 149 
145 150 
145 155 
146 147 
146 148 
146 156 
151 158 
151 159 
151 161 
152 157 
152 160 
152 162 
153 158 
153 160 
153 163 
154 157 
154 159 
154 164 
155 159 
155 160 
156 157 
156 158 
161 168 
161 169 
162 167 
162 170 
163 168 
163 170 
164 167 
164 169 
165 169 
165 170 
165 175 
166 167 
166 168 
166 176 
171 178 
171 179 
171 181 
172 177 
172 180 
172 182 
173 178 
173 180 
173 183 
174 177 
174 179 
174 184 
175 179 
175 180 
176 177 
176 178 
181 188 
181 189 
182 187 
182 190 
183 188 
183 190 
184 187 
184 189 
185 189 
185 190 
185 195 
186 187 
186 188 
186 196 
191 198 
191 199 
191 201 
192 197 
192 200 
192 202 
193 198 
193 200 
193 203 
194 197 
194 199 
194 204 
195 199 
195 200 
196 197 
196 198 
201 208 
201 209 
202 207 
202 210 
203 208 
203 210 
204 207 
204 209 
205 209 
205 210 
205 215 
206 207 
206 208 
206 216 
211 218 
211 219 
211 221 
212 217 
212 220 
212 222 
213 218 
213 220 
213 223 
214 217 
214 219 
214 224 
215 219 
215 220 
216 217 
216 218 
221 228 
221 229 
222 227 
222 230 
223 228 
223 230 
224 227 
224 229 
225 229 
225 230 
225 235 
226 227 
226 228 
226 236 
231 238 
231 239 
231 241 
232 237 
232 240 
232 242 
233 238 
233 240 
233 243 
234 237 
234 239 
234 244 
235 239 
235 240 
236 237 
236 238 
241 248 
241 249 
242 247 
242 250 
243 248 
243 250 
244 247 
244 249 
245 249 
245 250 
245 255 
246 247 
246 248 
246 256 
251 258 
251 259 
251 261 
252 257 
252 260 
252 262 
253 258 
253 260 
253 263 
254 257 
254 259 
254 264 
255 259 
255 260 
256 257 
256 258 
261 268 
261 269 
262 267 
262 270 
263 268 
263 270 
264 267 
264 269 
265 269 
265 270 
265 275 
266 267 
266 268 
266 276 
271 278 
271 279 
271 281 
272 277 
272 280 
272 282 
273 278 
273 280 
273 283 
274 277 
274 279 
274 284 
275 279 
275 280 
276 277 
276 278 
281 288 
281 289 
282 287 
282 290 
283 288 
283 290 
284 287 
284 289 
285 289 
285 290 
285 295 
286 287 
286 288 
286 296 
291 298 
291 299 
291 301 
292 297 
292 300 
292 302 
293 298 
293 300 
293 303 
294 297 
294 299 
294 304 
295 299 
295 300 
296 297 
296 298 
301 308 
301 309 
302 307 
302 310 
303 308 
303 310 
304 307 
304 309 
305 309 
305 310 
305 315 
306 307 
306 308 
306 316 
311 313 
311 318 
311 319 
312 314 
312 317 
312 320 
313 318 
313 320 
314 317 
314 319 
315 319 
315 320 
316 317 
316 318 
